c User generated cnf file
p cnf 15 65
15 10 -8 0 
14 -9 1 0 
11 11 -15 0 
10 3 -3 0 
15 -12 8 0 
12 -8 8 0 
14 1 -7 0 
9 -4 15 0 
13 2 -14 0 
2 1 -13 0 
7 10 -15 0 
6 -6 9 0 
1 -7 8 0 
13 -5 8 0 
3 -11 11 0 
3 -15 10 0 
6 9 -6 0 
3 10 -6 0 
7 -7 1 0 
6 -11 11 0 
1 3 -6 0 
11 4 -14 0 
1 2 -14 0 
13 -15 15 0 
12 -3 8 0 
5 -5 4 0 
5 -15 13 0 
7 1 -6 0 
8 15 -8 0 
10 3 -15 0 
11 -2 10 0 
15 14 -13 0 
14 -12 12 0 
11 -11 11 0 
11 -8 12 0 
14 -5 6 0 
5 12 -8 0 
11 -13 6 0 
12 -1 13 0 
9 -2 11 0 
3 -8 14 0 
10 2 -15 0 
1 5 -10 0 
9 2 -7 0 
1 15 -3 0 
15 -8 1 0 
6 -15 12 0 
15 -15 11 0 
10 -14 10 0 
7 8 -6 0 
4 10 -5 0 
2 3 -6 0 
10 -13 8 0 
15 -10 3 0 
3 14 -6 0 
13 -9 14 0 
2 6 -12 0 
6 15 -4 0 
5 -13 12 0 
14 -10 8 0 
11 -9 12 0 
13 -2 3 0 
4 -7 15 0 
8 -5 10 0 
12 -7 14 0 
